p cnf 25 90
-1 -2 0
-1 -3 0
-2 -3 0
1 2 3 0
-1 -4 0
-1 -5 0
-1 -6 0
-4 -5 0
-4 -6 0
-5 -6 0
1 4 5 6 0
-2 -7 0
-2 -8 0
-7 -8 0
2 7 8 0
-9 -10 0
-9 -11 0
-9 -12 0
-9 -13 0
-9 -14 0
-10 -11 0
-10 -12 0
-10 -13 0
-10 -14 0
-11 -12 0
-11 -13 0
-11 -14 0
-12 -13 0
-12 -14 0
-13 -14 0
9 10 11 12 13 14 0
-9 -15 0
-9 -16 0
-15 -16 0
9 15 16 0
-3 -10 0
3 10 0
-4 -7 0
-4 -11 0
-4 -17 0
-4 -18 0
-7 -11 0
-7 -17 0
-7 -18 0
-11 -17 0
-11 -18 0
-17 -18 0
4 7 11 17 18 0
-5 -17 0
-5 -19 0
-5 -20 0
-17 -19 0
-17 -20 0
-19 -20 0
5 17 19 20 0
-15 -21 0
15 21 0
-19 -22 0
19 22 0
-22 -23 0
-22 -24 0
-23 -24 0
22 23 24 0
-6 -8 0
-6 -12 0
-6 -21 0
-6 -23 0
-6 -25 0
-8 -12 0
-8 -21 0
-8 -23 0
-8 -25 0
-12 -21 0
-12 -23 0
-12 -25 0
-21 -23 0
-21 -25 0
-23 -25 0
6 8 12 21 23 25 0
-13 -18 0
-13 -20 0
-18 -20 0
13 18 20 0
-14 -16 0
-14 -24 0
-14 -25 0
-16 -24 0
-16 -25 0
-24 -25 0
14 16 24 25 0
